n = 20;
lu = [|-288, 367
      |-382, 399
      |-304, -253
      |-124, 121
      |-215, 312
      |-145, 368
      |81, 346
      |148, 340
      |-362, 167
      |72, 305
      |-248, -152
      |66, 280
      |219, 351
      |53, 369
      |90, 159
      |-194, 366
      |-150, 225
      |121, 364
      |-287, 261
      |-252, 134|];
